c instancia_04  vars=15  clausulas=25  k=2
p cnf 15 25
3 15 0
-15 2 0
-2 9 0
12 15 0
-1 -12 0
9 -13 0
15 13 0
10 8 0
4 3 0
-1 -6 0
-11 -3 0
13 7 0
4 14 0
-9 -5 0
-11 -3 0
-13 -14 0
10 6 0
9 11 0
-5 1 0
7 14 0
-13 -12 0
-9 -7 0
-8 -2 0
9 -10 0
-9 -4 0
